N = 11;
H = 5;
T = 2;

avail = array3d(1..N, 1..H, 1..T, [4, 6, 1, 8, 3, 9, 4, 8, 6, 5, 4, 6, 2, 5, 1, 5, 10, 6, 8, 9, 2, 3, 5, 2, 10, 1, 9, 10, 4, 1, 8, 5, 8, 3, 1, 4, 7, 9, 7, 7, 6, 5, 7, 4, 9, 5, 10, 5, 1, 10, 7, 5, 1, 6, 0, 9, 2, 8, 0, 0, 4, 9, 7, 1, 0, 8, 10, 1, 4, 7, 1, 8, 10, 2, 10, 4, 1, 2, 3, 3, 2, 5, 5, 9, 2, 10, 0, 6, 4, 0, 9, 10, 5, 8, 10, 10, 10, 8, 2, 2, 0, 7, 0, 7, 8, 1, 7, 1, 6, 8]);

r = array2d(1..H, 1..T, [2, 3, 2, 4, 2, 4, 3, 2, 4, 5]);
